c Result of efficient AIG-to-CNF conversion using package CNF
p cnf 648 2376
-2 -3 109 0
-2 109 560 572 0
2 -109 0
2 3 -572 0
2 3 -560 0
-3 617 4 75 93 0
3 -617 0
3 -93 0
3 -75 0
3 -4 0
-4 618 619 5 46 0
4 -46 0
4 -5 0
4 -618 0
4 -619 0
5 -643 6 -33 0
5 643 6 -18 0
-5 -6 0
-5 -643 33 0
-5 643 18 0
-6 7 8 10 12 0
6 -12 0
6 -7 0
6 -10 0
6 -8 0
-7 616 617 0
7 -616 0
7 -617 0
-8 626 627 630 9 0
8 -9 0
8 -630 0
8 -626 0
8 -627 0
-9 628 629 0
9 -628 0
9 -629 0
-10 640 641 642 11 0
10 -11 0
10 -642 0
10 -640 0
10 -641 0
-11 637 638 639 0
11 -637 0
11 -639 0
11 -638 0
-12 636 13 14 15 0
12 -636 0
12 -15 0
12 -14 0
12 -13 0
-13 631 632 0
13 -631 0
13 -632 0
-14 633 634 635 0
14 -633 0
14 -635 0
14 -634 0
-15 624 625 16 17 0
15 -624 0
15 -17 0
15 -16 0
15 -625 0
-16 618 619 0
16 -618 0
16 -619 0
-17 620 621 622 623 0
17 -623 0
17 -622 0
17 -620 0
17 -621 0
-18 644 19 0
-18 -644 26 0
18 -644 -26 0
18 644 -19 0
-19 645 20 0
-19 -645 23 0
19 -645 -23 0
19 645 -20 0
-20 646 22 0
-20 -646 21 0
20 -646 -21 0
20 646 -22 0
21 -589 -647 0
21 -588 647 0
-21 588 647 0
-21 589 -647 0
22 -587 -647 0
22 -586 647 0
-22 586 647 0
-22 587 -647 0
23 -646 -24 0
23 646 -25 0
-23 646 25 0
-23 -646 24 0
24 -593 -647 0
24 -592 647 0
-24 592 647 0
-24 593 -647 0
25 -591 -647 0
25 -590 647 0
-25 590 647 0
-25 591 -647 0
26 645 -27 0
26 -645 -30 0
-26 -645 30 0
-26 645 27 0
27 646 -28 0
27 -646 -29 0
-27 -646 29 0
-27 646 28 0
28 -595 -647 0
28 -594 647 0
-28 594 647 0
-28 595 -647 0
29 -597 -647 0
29 -596 647 0
-29 596 647 0
-29 597 -647 0
30 646 -31 0
30 -646 -32 0
-30 -646 32 0
-30 646 31 0
31 -599 -647 0
31 -598 647 0
-31 598 647 0
-31 599 -647 0
32 -601 -647 0
32 -600 647 0
-32 600 647 0
-32 601 -647 0
33 644 -34 0
33 -644 -41 0
-33 -644 41 0
-33 644 34 0
34 645 -35 0
34 -645 -38 0
-34 -645 38 0
-34 645 35 0
35 646 -36 0
35 -646 -37 0
-35 -646 37 0
-35 646 36 0
36 -603 -647 0
36 -602 647 0
-36 602 647 0
-36 603 -647 0
37 -605 -647 0
37 -604 647 0
-37 604 647 0
-37 605 -647 0
38 646 -39 0
38 -646 -40 0
-38 -646 40 0
-38 646 39 0
39 -607 -647 0
39 -606 647 0
-39 606 647 0
-39 607 -647 0
40 -609 -647 0
40 -608 647 0
-40 608 647 0
-40 609 -647 0
41 645 -42 0
41 -645 -45 0
-41 -645 45 0
-41 645 42 0
42 646 -43 0
42 -646 -44 0
-42 -646 44 0
-42 646 43 0
43 -611 -647 0
43 -610 647 0
-43 610 647 0
-43 611 -647 0
44 -613 -647 0
44 -612 647 0
-44 612 647 0
-44 613 -647 0
45 -614 646 647 0
45 -615 646 -647 0
-45 -646 0
-45 615 -647 0
-45 614 647 0
46 -643 6 -62 0
46 643 6 -47 0
-46 -6 0
-46 -643 62 0
-46 643 47 0
-47 644 48 0
-47 -644 55 0
47 -644 -55 0
47 644 -48 0
-48 645 49 0
-48 -645 52 0
48 -645 -52 0
48 645 -49 0
-49 646 51 0
-49 -646 50 0
49 -646 -50 0
49 646 -51 0
50 -590 -647 0
50 -589 647 0
-50 589 647 0
-50 590 -647 0
51 -588 -647 0
51 -587 647 0
-51 587 647 0
-51 588 -647 0
52 646 -53 0
52 -646 -54 0
-52 -646 54 0
-52 646 53 0
53 -592 -647 0
53 -591 647 0
-53 591 647 0
-53 592 -647 0
54 -594 -647 0
54 -593 647 0
-54 593 647 0
-54 594 -647 0
55 645 -56 0
55 -645 -59 0
-55 -645 59 0
-55 645 56 0
56 646 -57 0
56 -646 -58 0
-56 -646 58 0
-56 646 57 0
57 -596 -647 0
57 -595 647 0
-57 595 647 0
-57 596 -647 0
58 -598 -647 0
58 -597 647 0
-58 597 647 0
-58 598 -647 0
59 646 -60 0
59 -646 -61 0
-59 -646 61 0
-59 646 60 0
60 -600 -647 0
60 -599 647 0
-60 599 647 0
-60 600 -647 0
61 -602 -647 0
61 -601 647 0
-61 601 647 0
-61 602 -647 0
62 644 -63 0
62 -644 -70 0
-62 -644 70 0
-62 644 63 0
63 645 -64 0
63 -645 -67 0
-63 -645 67 0
-63 645 64 0
64 646 -65 0
64 -646 -66 0
-64 -646 66 0
-64 646 65 0
65 -604 -647 0
65 -603 647 0
-65 603 647 0
-65 604 -647 0
66 -606 -647 0
66 -605 647 0
-66 605 647 0
-66 606 -647 0
67 646 -68 0
67 -646 -69 0
-67 -646 69 0
-67 646 68 0
68 -608 -647 0
68 -607 647 0
-68 607 647 0
-68 608 -647 0
69 -610 -647 0
69 -609 647 0
-69 609 647 0
-69 610 -647 0
70 645 -71 0
70 -645 -74 0
-70 -645 74 0
-70 645 71 0
71 646 -72 0
71 -646 -73 0
-71 -646 73 0
-71 646 72 0
72 -612 -647 0
72 -611 647 0
-72 611 647 0
-72 612 -647 0
73 -614 -647 0
73 -613 647 0
-73 613 647 0
-73 614 -647 0
74 -615 646 647 0
-74 615 0
-74 -647 0
-74 -646 0
-75 616 76 0
75 -616 0
75 -76 0
76 -643 6 -85 0
76 643 6 -77 0
-76 -6 0
-76 -643 85 0
-76 643 77 0
-77 644 78 0
-77 -644 82 0
77 -644 -82 0
77 644 -78 0
-78 -645 79 0
-78 645 80 0
78 -645 -79 0
78 645 -80 0
79 646 -21 0
79 -646 -25 0
-79 -646 25 0
-79 646 21 0
-80 646 81 0
-80 -646 22 0
80 -646 -22 0
80 646 -81 0
81 -585 -647 0
81 -584 647 0
-81 584 647 0
-81 585 -647 0
82 645 -83 0
82 -645 -84 0
-82 -645 84 0
-82 645 83 0
83 646 -24 0
83 -646 -28 0
-83 -646 28 0
-83 646 24 0
84 646 -29 0
84 -646 -31 0
-84 -646 31 0
-84 646 29 0
85 644 -86 0
85 -644 -89 0
-85 -644 89 0
-85 644 86 0
86 645 -87 0
86 -645 -88 0
-86 -645 88 0
-86 645 87 0
87 646 -32 0
87 -646 -36 0
-87 -646 36 0
-87 646 32 0
88 646 -37 0
88 -646 -39 0
-88 -646 39 0
-88 646 37 0
89 645 -90 0
89 -645 -91 0
-89 -645 91 0
-89 645 90 0
90 646 -40 0
90 -646 -43 0
-90 -646 43 0
-90 646 40 0
91 646 -44 0
91 -646 -92 0
-91 -646 92 0
-91 646 44 0
92 -615 -647 0
92 -614 647 0
-92 614 647 0
-92 615 -647 0
93 -643 6 -102 0
93 643 6 -94 0
-93 -6 0
-93 -643 102 0
-93 643 94 0
-94 644 95 0
-94 -644 99 0
94 -644 -99 0
94 644 -95 0
-95 645 96 0
-95 -645 98 0
95 -645 -98 0
95 645 -96 0
-96 646 97 0
-96 -646 51 0
96 -646 -51 0
96 646 -97 0
97 -586 -647 0
97 -585 647 0
-97 585 647 0
-97 586 -647 0
98 646 -50 0
98 -646 -53 0
-98 -646 53 0
-98 646 50 0
99 645 -100 0
99 -645 -101 0
-99 -645 101 0
-99 645 100 0
100 646 -54 0
100 -646 -57 0
-100 -646 57 0
-100 646 54 0
101 646 -58 0
101 -646 -60 0
-101 -646 60 0
-101 646 58 0
102 644 -103 0
102 -644 -106 0
-102 -644 106 0
-102 644 103 0
103 645 -104 0
103 -645 -105 0
-103 -645 105 0
-103 645 104 0
104 646 -61 0
104 -646 -65 0
-104 -646 65 0
-104 646 61 0
105 646 -66 0
105 -646 -68 0
-105 -646 68 0
-105 646 66 0
106 645 -107 0
106 -645 -108 0
-106 -645 108 0
-106 645 107 0
107 646 -69 0
107 -646 -72 0
-107 -646 72 0
-107 646 69 0
108 646 -73 0
108 -615 -646 647 0
-108 646 73 0
-108 -646 -647 0
-108 615 -646 0
109 618 619 7 -110 0
-109 -618 0
-109 110 0
-109 -7 0
-109 -619 0
-110 111 -425 489 0
-110 111 456 489 0
110 -111 0
110 -489 0
110 425 -456 0
111 120 -239 0
111 -112 -239 0
-111 239 0
-111 112 -120 0
-112 620 113 0
112 -620 0
112 -113 0
113 -643 6 -117 0
113 643 6 -114 0
-113 -6 0
-113 -643 117 0
-113 643 114 0
-114 644 115 0
-114 -644 116 0
114 -644 -116 0
114 644 -115 0
-115 645 79 0
-115 -645 83 0
115 -645 -83 0
115 645 -79 0
116 645 -84 0
116 -645 -87 0
-116 -645 87 0
-116 645 84 0
117 644 -118 0
117 -644 -119 0
-117 -644 119 0
-117 644 118 0
118 645 -88 0
118 -645 -90 0
-118 -645 90 0
-118 645 88 0
119 645 -91 0
-119 -645 0
-119 91 0
120 3 121 173 -196 0
-120 196 0
-120 -3 0
-120 -173 0
-120 -121 0
-121 122 130 146 0
121 -122 0
121 -130 0
121 -146 0
-122 623 123 0
122 -623 0
122 -123 0
123 -643 6 -127 0
123 643 6 -124 0
-123 -6 0
-123 -643 127 0
-123 643 124 0
-124 644 125 0
-124 -644 126 0
124 -644 -126 0
124 644 -125 0
-125 -645 56 0
-125 645 52 0
125 645 -52 0
125 -645 -56 0
126 645 -59 0
126 -645 -64 0
-126 -645 64 0
-126 645 59 0
127 644 -128 0
127 -644 -129 0
-127 -644 129 0
-127 644 128 0
128 645 -67 0
128 -645 -71 0
-128 -645 71 0
-128 645 67 0
129 -615 645 646 647 0
-129 -647 0
-129 -646 0
-129 615 0
-129 -645 0
-130 622 131 139 0
130 -622 0
130 -131 0
130 -139 0
-131 621 132 0
131 -621 0
131 -132 0
132 -643 6 -136 0
132 643 6 -133 0
-132 -6 0
-132 -643 136 0
-132 643 133 0
-133 644 134 0
-133 -644 135 0
133 -644 -135 0
133 644 -134 0
-134 -645 100 0
-134 645 98 0
134 645 -98 0
134 -645 -100 0
135 645 -101 0
135 -645 -104 0
-135 -645 104 0
-135 645 101 0
136 644 -137 0
136 -644 -138 0
-136 -644 138 0
-136 644 137 0
137 645 -105 0
137 -645 -107 0
-137 -645 107 0
-137 645 105 0
138 645 -108 0
-138 -645 0
-138 108 0
139 -643 6 -143 0
139 643 6 -140 0
-139 -6 0
-139 -643 143 0
-139 643 140 0
-140 644 141 0
-140 -644 142 0
140 -644 -142 0
140 644 -141 0
-141 -645 27 0
-141 645 23 0
141 645 -23 0
141 -645 -27 0
142 645 -30 0
142 -645 -35 0
-142 -645 35 0
-142 645 30 0
143 644 -144 0
143 -644 -145 0
-143 -644 145 0
-143 644 144 0
144 645 -38 0
144 -645 -42 0
-144 -645 42 0
-144 645 38 0
145 645 -45 0
-145 -645 0
-145 45 0
-146 147 159 0
146 -147 0
146 -159 0
-147 626 148 152 156 0
147 -626 0
147 -156 0
147 -152 0
147 -148 0
-148 624 149 0
148 -624 0
148 -149 0
149 -643 6 -151 0
149 643 6 -150 0
-149 -6 0
-149 -643 151 0
-149 643 150 0
150 644 -82 0
150 -644 -86 0
-150 -644 86 0
-150 644 82 0
151 644 -89 0
-151 -644 0
-151 89 0
-152 625 153 0
152 -625 0
152 -153 0
153 -643 6 -155 0
153 643 6 -154 0
-153 -6 0
-153 -643 155 0
-153 643 154 0
154 644 -99 0
154 -644 -103 0
-154 -644 103 0
-154 644 99 0
155 644 -106 0
-155 -644 0
-155 106 0
156 -643 6 -158 0
156 643 6 -157 0
-156 -6 0
-156 -643 158 0
-156 643 157 0
157 644 -26 0
157 -644 -34 0
-157 -644 34 0
-157 644 26 0
158 644 -41 0
-158 -644 0
-158 41 0
-159 628 160 164 167 0
159 -160 0
159 -164 0
159 -628 0
159 -167 0
-160 627 161 0
160 -627 0
160 -161 0
161 -643 6 -163 0
161 643 6 -162 0
-161 -6 0
-161 -643 163 0
-161 643 162 0
162 644 -55 0
162 -644 -63 0
-162 -644 63 0
-162 644 55 0
163 644 -70 0
-163 -644 0
-163 70 0
164 -643 6 -166 0
164 643 6 -165 0
-164 -6 0
-164 -643 166 0
-164 643 165 0
165 644 -116 0
165 -644 -118 0
-165 -644 118 0
-165 644 116 0
166 644 -119 0
-166 -644 0
-166 119 0
-167 629 632 168 171 0
167 -171 0
167 -168 0
167 -629 0
167 -632 0
168 -643 6 -170 0
168 643 6 -169 0
-168 -6 0
-168 -643 170 0
-168 643 169 0
169 644 -135 0
169 -644 -137 0
-169 -644 137 0
-169 644 135 0
170 644 -138 0
-170 -644 0
-170 138 0
171 -85 172 0
-171 85 0
-171 -172 0
-172 643 6 0
172 -643 0
172 -6 0
-173 174 182 186 190 0
173 -190 0
173 -174 0
173 -186 0
173 -182 0
-174 637 175 179 181 0
174 -637 0
174 -181 0
174 -179 0
174 -175 0
-175 634 176 178 0
175 -634 0
175 -176 0
175 -178 0
-176 633 177 0
176 -633 0
176 -177 0
177 -102 172 0
-177 102 0
-177 -172 0
178 -33 172 0
-178 33 0
-178 -172 0
-179 636 180 0
179 -636 0
179 -180 0
180 -117 172 0
-180 117 0
-180 -172 0
181 -136 172 0
-181 136 0
-181 -172 0
-182 630 183 0
182 -630 0
182 -183 0
183 -643 6 -185 0
183 643 6 -184 0
-183 -6 0
-183 -643 185 0
-183 643 184 0
184 644 -142 0
184 -644 -144 0
-184 -644 144 0
-184 644 142 0
185 644 -145 0
-185 -644 0
-185 145 0
-186 631 187 0
186 -631 0
186 -187 0
187 -643 6 -189 0
187 643 6 -188 0
-187 -6 0
-187 -643 189 0
-187 643 188 0
188 644 -126 0
188 -644 -128 0
-188 -644 128 0
-188 644 126 0
189 644 -129 0
-189 -644 0
-189 129 0
-190 640 191 193 195 0
190 -640 0
190 -195 0
190 -193 0
190 -191 0
-191 635 192 0
191 -635 0
191 -192 0
192 -62 172 0
-192 62 0
-192 -172 0
-193 639 194 0
193 -639 0
193 -194 0
194 -127 172 0
-194 127 0
-194 -172 0
195 -151 172 0
-195 151 0
-195 -172 0
196 197 202 -225 0
196 197 -202 -204 0
-196 -197 0
-196 202 225 0
-196 -202 204 0
-197 642 198 199 0
197 -199 0
197 -198 0
197 -642 0
198 -158 172 0
-198 158 0
-198 -172 0
-199 638 641 200 201 0
199 -201 0
199 -200 0
199 -638 0
199 -641 0
200 -143 172 0
-200 143 0
-200 -172 0
201 -155 172 0
-201 155 0
-201 -172 0
-202 643 203 0
202 -643 0
202 -203 0
203 -163 172 0
-203 163 0
-203 -172 0
204 205 -207 0
204 -205 -220 0
-204 -205 220 0
-204 205 207 0
-205 644 206 0
205 -644 0
205 -206 0
206 -166 172 0
-206 166 0
-206 -172 0
207 208 -210 0
207 -208 -217 0
-207 -208 217 0
-207 208 210 0
-208 645 209 0
208 -645 0
208 -209 0
209 -170 172 0
-209 170 0
-209 -172 0
210 211 -213 0
210 -211 -216 0
-210 -211 216 0
-210 211 213 0
-211 646 212 0
211 -646 0
211 -212 0
212 172 -185 0
-212 -172 0
-212 185 0
213 -604 -214 0
213 -603 214 0
-213 604 -214 0
-213 603 214 0
-214 647 215 0
214 -647 0
214 -215 0
215 172 -189 0
-215 -172 0
-215 189 0
216 -606 -214 0
216 -605 214 0
-216 606 -214 0
-216 605 214 0
217 211 -218 0
217 -211 -219 0
-217 -211 219 0
-217 211 218 0
218 -608 -214 0
218 -607 214 0
-218 608 -214 0
-218 607 214 0
219 -610 -214 0
219 -609 214 0
-219 610 -214 0
-219 609 214 0
220 208 -221 0
220 -208 211 -224 0
-220 208 221 0
-220 -208 -211 0
-220 -208 224 0
221 211 -222 0
221 -211 -223 0
-221 -211 223 0
-221 211 222 0
222 -612 -214 0
222 -611 214 0
-222 612 -214 0
-222 611 214 0
223 -614 -214 0
223 -613 214 0
-223 614 -214 0
-223 613 214 0
224 -615 214 0
-224 615 0
-224 -214 0
225 -205 -232 0
225 205 -226 229 0
-225 205 226 0
-225 -205 232 0
-225 205 -229 0
-226 208 -211 228 0
-226 208 211 227 0
226 -208 0
226 211 -227 0
226 -211 -228 0
227 -588 -214 0
227 -587 214 0
-227 588 -214 0
-227 587 214 0
228 -590 -214 0
228 -589 214 0
-228 590 -214 0
-228 589 214 0
229 -208 211 230 0
229 -208 -211 231 0
-229 208 0
-229 211 -230 0
-229 -211 -231 0
230 -592 -214 0
230 -591 214 0
-230 592 -214 0
-230 591 214 0
231 -594 -214 0
231 -593 214 0
-231 594 -214 0
-231 593 214 0
232 -233 236 0
-232 233 0
-232 -236 0
-233 208 -211 235 0
-233 208 211 234 0
233 -208 0
233 211 -234 0
233 -211 -235 0
234 -596 -214 0
234 -595 214 0
-234 596 -214 0
-234 595 214 0
235 -598 -214 0
235 -597 214 0
-235 598 -214 0
-235 597 214 0
236 -208 211 237 0
236 -208 -211 238 0
-236 208 0
-236 211 -237 0
-236 -211 -238 0
237 -600 -214 0
237 -599 214 0
-237 600 -214 0
-237 599 214 0
238 -602 -214 0
238 -601 214 0
-238 602 -214 0
-238 601 214 0
239 643 -240 396 0
239 -643 396 -399 0
-239 -396 0
-239 -643 399 0
-239 643 240 0
240 -644 -367 0
240 644 -241 338 0
-240 644 241 0
-240 -644 367 0
-240 644 -338 0
-241 645 -646 310 0
-241 645 646 242 0
241 -645 0
241 -646 -310 0
241 646 -242 0
242 647 -243 0
242 -647 -283 0
-242 -647 283 0
-242 647 243 0
243 -203 244 -270 0
243 203 244 -255 0
-243 -244 0
-243 -203 270 0
-243 203 255 0
-244 123 245 251 252 0
244 -123 0
244 -252 0
244 -251 0
244 -245 0
-245 113 46 246 248 0
245 -113 0
245 -248 0
245 -246 0
245 -46 0
-246 93 153 161 247 0
246 -247 0
246 -161 0
246 -93 0
246 -153 0
-247 5 168 187 0
247 -5 0
247 -187 0
247 -168 0
-248 149 156 183 249 0
248 -249 0
248 -183 0
248 -149 0
248 -156 0
-249 139 178 192 250 0
249 -250 0
249 -192 0
249 -139 0
249 -178 0
-250 181 194 0
250 -181 0
250 -194 0
-251 76 132 164 0
251 -76 0
251 -164 0
251 -132 0
-252 200 201 253 0
252 -253 0
252 -201 0
252 -200 0
-253 171 180 195 254 0
253 -254 0
253 -195 0
253 -171 0
253 -180 0
-254 177 198 0
254 -177 0
254 -198 0
-255 206 256 0
-255 -206 263 0
255 -206 -263 0
255 206 -256 0
-256 209 257 0
-256 -209 260 0
256 -209 -260 0
256 209 -257 0
-257 212 259 0
-257 -212 258 0
257 -212 -258 0
257 212 -259 0
258 -590 -215 0
258 -589 215 0
-258 589 215 0
-258 590 -215 0
259 -588 -215 0
259 -587 215 0
-259 587 215 0
-259 588 -215 0
260 212 -261 0
260 -212 -262 0
-260 -212 262 0
-260 212 261 0
261 -592 -215 0
261 -591 215 0
-261 591 215 0
-261 592 -215 0
262 -594 -215 0
262 -593 215 0
-262 593 215 0
-262 594 -215 0
263 209 -264 0
263 -209 -267 0
-263 -209 267 0
-263 209 264 0
264 212 -265 0
264 -212 -266 0
-264 -212 266 0
-264 212 265 0
265 -596 -215 0
265 -595 215 0
-265 595 215 0
-265 596 -215 0
266 -598 -215 0
266 -597 215 0
-266 597 215 0
-266 598 -215 0
267 212 -268 0
267 -212 -269 0
-267 -212 269 0
-267 212 268 0
268 -600 -215 0
268 -599 215 0
-268 599 215 0
-268 600 -215 0
269 -602 -215 0
269 -601 215 0
-269 601 215 0
-269 602 -215 0
270 206 -271 0
270 -206 -278 0
-270 -206 278 0
-270 206 271 0
271 209 -272 0
271 -209 -275 0
-271 -209 275 0
-271 209 272 0
272 212 -273 0
272 -212 -274 0
-272 -212 274 0
-272 212 273 0
273 -604 -215 0
273 -603 215 0
-273 603 215 0
-273 604 -215 0
274 -606 -215 0
274 -605 215 0
-274 605 215 0
-274 606 -215 0
275 212 -276 0
275 -212 -277 0
-275 -212 277 0
-275 212 276 0
276 -608 -215 0
276 -607 215 0
-276 607 215 0
-276 608 -215 0
277 -610 -215 0
277 -609 215 0
-277 609 215 0
-277 610 -215 0
278 209 -279 0
278 -209 -282 0
-278 -209 282 0
-278 209 279 0
279 212 -280 0
279 -212 -281 0
-279 -212 281 0
-279 212 280 0
280 -612 -215 0
280 -611 215 0
-280 611 215 0
-280 612 -215 0
281 -614 -215 0
281 -613 215 0
-281 613 215 0
-281 614 -215 0
282 -615 212 215 0
-282 615 0
-282 -215 0
-282 -212 0
283 -203 244 -299 0
283 203 244 -284 0
-283 -244 0
-283 -203 299 0
-283 203 284 0
-284 206 285 0
-284 -206 292 0
284 -206 -292 0
284 206 -285 0
-285 209 289 0
-285 -209 286 0
285 -209 -286 0
285 209 -289 0
286 212 -287 0
286 -212 -288 0
-286 -212 288 0
-286 212 287 0
287 -593 -215 0
287 -592 215 0
-287 592 215 0
-287 593 -215 0
288 -595 -215 0
288 -594 215 0
-288 594 215 0
-288 595 -215 0
289 212 -290 0
289 -212 -291 0
-289 -212 291 0
-289 212 290 0
290 -589 -215 0
290 -588 215 0
-290 588 215 0
-290 589 -215 0
291 -591 -215 0
291 -590 215 0
-291 590 215 0
-291 591 -215 0
292 209 -293 0
292 -209 -296 0
-292 -209 296 0
-292 209 293 0
293 212 -294 0
293 -212 -295 0
-293 -212 295 0
-293 212 294 0
294 -597 -215 0
294 -596 215 0
-294 596 215 0
-294 597 -215 0
295 -599 -215 0
295 -598 215 0
-295 598 215 0
-295 599 -215 0
296 212 -297 0
296 -212 -298 0
-296 -212 298 0
-296 212 297 0
297 -601 -215 0
297 -600 215 0
-297 600 215 0
-297 601 -215 0
298 -603 -215 0
298 -602 215 0
-298 602 215 0
-298 603 -215 0
299 206 -300 0
299 -206 -307 0
-299 -206 307 0
-299 206 300 0
300 209 -301 0
300 -209 -304 0
-300 -209 304 0
-300 209 301 0
301 212 -302 0
301 -212 -303 0
-301 -212 303 0
-301 212 302 0
302 -605 -215 0
302 -604 215 0
-302 604 215 0
-302 605 -215 0
303 -607 -215 0
303 -606 215 0
-303 606 215 0
-303 607 -215 0
304 212 -305 0
304 -212 -306 0
-304 -212 306 0
-304 212 305 0
305 -609 -215 0
305 -608 215 0
-305 608 215 0
-305 609 -215 0
306 -611 -215 0
306 -610 215 0
-306 610 215 0
-306 611 -215 0
307 209 -308 0
-307 -209 0
-307 308 0
308 -614 -212 0
308 212 -309 0
308 -212 -215 0
-308 212 309 0
-308 614 -212 215 0
309 -613 -215 0
309 -612 215 0
-309 612 215 0
-309 613 -215 0
310 647 -311 0
310 -647 -325 0
-310 -647 325 0
-310 647 311 0
311 -203 244 -319 0
311 203 244 -312 0
-311 -244 0
-311 -203 319 0
-311 203 312 0
-312 206 313 0
-312 -206 316 0
312 -206 -316 0
312 206 -313 0
-313 209 315 0
-313 -209 314 0
313 -209 -314 0
313 209 -315 0
314 212 -262 0
314 -212 -265 0
-314 -212 265 0
-314 212 262 0
315 212 -258 0
315 -212 -261 0
-315 -212 261 0
-315 212 258 0
316 209 -317 0
316 -209 -318 0
-316 -209 318 0
-316 209 317 0
317 212 -266 0
317 -212 -268 0
-317 -212 268 0
-317 212 266 0
318 212 -269 0
318 -212 -273 0
-318 -212 273 0
-318 212 269 0
319 206 -320 0
319 -206 -323 0
-319 -206 323 0
-319 206 320 0
320 209 -321 0
320 -209 -322 0
-320 -209 322 0
-320 209 321 0
321 212 -274 0
321 -212 -276 0
-321 -212 276 0
-321 212 274 0
322 212 -277 0
322 -212 -280 0
-322 -212 280 0
-322 212 277 0
323 209 -324 0
-323 -209 0
-323 324 0
324 212 -281 0
324 -615 -212 215 0
-324 212 281 0
-324 -212 -215 0
-324 615 -212 0
325 -203 244 -333 0
325 203 244 -326 0
-325 -244 0
-325 -203 333 0
-325 203 326 0
-326 206 327 0
-326 -206 330 0
326 -206 -330 0
326 206 -327 0
-327 209 329 0
-327 -209 328 0
327 -209 -328 0
327 209 -329 0
328 212 -288 0
328 -212 -294 0
-328 -212 294 0
-328 212 288 0
329 -212 -287 0
329 212 -291 0
-329 212 291 0
-329 -212 287 0
330 209 -331 0
330 -209 -332 0
-330 -209 332 0
-330 209 331 0
331 212 -295 0
331 -212 -297 0
-331 -212 297 0
-331 212 295 0
332 212 -298 0
332 -212 -302 0
-332 -212 302 0
-332 212 298 0
333 206 -334 0
333 -206 -337 0
-333 -206 337 0
-333 206 334 0
334 209 -335 0
334 -209 -336 0
-334 -209 336 0
-334 209 335 0
335 212 -303 0
335 -212 -305 0
-335 -212 305 0
-335 212 303 0
336 212 -306 0
336 -212 -309 0
-336 -212 309 0
-336 212 306 0
337 209 212 -215 0
337 -614 209 212 0
-337 -212 0
-337 -209 0
-337 614 215 0
338 -645 -646 353 0
338 -645 646 339 0
-338 645 0
-338 -646 -353 0
-338 646 -339 0
339 647 -340 0
339 -647 -347 0
-339 -647 347 0
-339 647 340 0
340 -203 244 -344 0
340 203 244 -341 0
-340 -244 0
-340 -203 344 0
-340 203 341 0
-341 206 342 0
-341 -206 343 0
341 -206 -343 0
341 206 -342 0
-342 -209 264 0
-342 209 260 0
342 209 -260 0
342 -209 -264 0
343 209 -267 0
343 -209 -272 0
-343 -209 272 0
-343 209 267 0
344 206 -345 0
344 -206 -346 0
-344 -206 346 0
-344 206 345 0
345 209 -275 0
345 -209 -279 0
-345 -209 279 0
-345 209 275 0
346 -615 209 212 215 0
-346 -215 0
-346 -212 0
-346 615 0
-346 -209 0
347 -203 244 -351 0
347 203 244 -348 0
-347 -244 0
-347 -203 351 0
-347 203 348 0
348 206 -349 0
348 -206 -350 0
-348 -206 350 0
-348 206 349 0
349 209 -286 0
349 -209 -293 0
-349 -209 293 0
-349 209 286 0
350 209 -296 0
350 -209 -301 0
-350 -209 301 0
-350 209 296 0
351 206 -352 0
-351 -206 0
-351 352 0
352 209 -304 0
352 -209 -308 0
-352 -209 308 0
-352 209 304 0
353 647 -354 0
353 -647 -360 0
-353 -647 360 0
-353 647 354 0
354 -203 244 -358 0
354 203 244 -355 0
-354 -244 0
-354 -203 358 0
-354 203 355 0
355 206 -356 0
355 -206 -357 0
-355 -206 357 0
-355 206 356 0
356 209 -314 0
356 -209 -317 0
-356 -209 317 0
-356 209 314 0
357 209 -318 0
357 -209 -321 0
-357 -209 321 0
-357 209 318 0
358 206 -359 0
-358 -206 0
-358 359 0
359 209 -322 0
359 -209 -324 0
-359 -209 324 0
-359 209 322 0
360 -203 244 -364 0
360 203 244 -361 0
-360 -244 0
-360 -203 364 0
-360 203 361 0
361 206 -362 0
361 -206 -363 0
-361 -206 363 0
-361 206 362 0
362 209 -328 0
362 -209 -331 0
-362 -209 331 0
-362 209 328 0
363 209 -332 0
363 -209 -335 0
-363 -209 335 0
-363 209 332 0
364 206 -365 0
-364 -206 0
-364 365 0
365 209 -336 0
365 -209 -366 0
-365 -209 366 0
-365 209 336 0
366 -614 212 0
366 212 -215 0
-366 -212 0
-366 614 215 0
367 645 -368 0
367 -645 -383 0
-367 -645 383 0
-367 645 368 0
368 646 -369 0
368 -646 -376 0
-368 -646 376 0
-368 646 369 0
369 647 -370 0
369 -647 -373 0
-369 -647 373 0
-369 647 370 0
370 -203 244 -372 0
370 203 244 -371 0
-370 -244 0
-370 -203 372 0
-370 203 371 0
371 206 -263 0
371 -206 -271 0
-371 -206 271 0
-371 206 263 0
372 206 -278 0
-372 -206 0
-372 278 0
373 -203 244 -375 0
373 203 244 -374 0
-373 -244 0
-373 -203 375 0
-373 203 374 0
374 206 -292 0
374 -206 -300 0
-374 -206 300 0
-374 206 292 0
375 206 -307 0
-375 -206 0
-375 307 0
376 647 -377 0
376 -647 -380 0
-376 -647 380 0
-376 647 377 0
377 -203 244 -379 0
377 203 244 -378 0
-377 -244 0
-377 -203 379 0
-377 203 378 0
378 206 -316 0
378 -206 -320 0
-378 -206 320 0
-378 206 316 0
379 206 -323 0
-379 -206 0
-379 323 0
380 -203 244 -382 0
380 203 244 -381 0
-380 -244 0
-380 -203 382 0
-380 203 381 0
381 206 -330 0
381 -206 -334 0
-381 -206 334 0
-381 206 330 0
382 206 -337 0
-382 -206 0
-382 337 0
383 646 -384 0
383 -646 -391 0
-383 -646 391 0
-383 646 384 0
384 647 -385 0
384 -647 -388 0
-384 -647 388 0
-384 647 385 0
385 -203 244 -387 0
385 203 244 -386 0
-385 -244 0
-385 -203 387 0
-385 203 386 0
386 206 -343 0
386 -206 -345 0
-386 -206 345 0
-386 206 343 0
387 206 -346 0
-387 -206 0
-387 346 0
388 389 -390 0
-388 -389 0
-388 390 0
-389 203 244 0
389 -203 0
389 -244 0
390 206 -350 0
390 -206 -352 0
-390 -206 352 0
-390 206 350 0
391 647 -392 0
391 -647 -394 0
-391 -647 394 0
-391 647 392 0
392 389 -393 0
-392 -389 0
-392 393 0
393 206 -357 0
393 -206 -359 0
-393 -206 359 0
-393 206 357 0
394 389 -395 0
-394 -389 0
-394 395 0
395 206 -363 0
395 -206 -365 0
-395 -206 365 0
-395 206 363 0
-396 8 14 397 398 0
396 -398 0
396 -8 0
396 -397 0
396 -14 0
-397 624 625 0
397 -624 0
397 -625 0
-398 636 10 13 17 0
398 -636 0
398 -17 0
398 -13 0
398 -10 0
399 644 -400 0
399 -644 -415 0
-399 -644 415 0
-399 644 400 0
400 645 -401 0
400 -645 -408 0
-400 -645 408 0
-400 645 401 0
401 646 -402 0
401 -646 -405 0
-401 -646 405 0
-401 646 402 0
402 647 -403 0
402 -647 -404 0
-402 -647 404 0
-402 647 403 0
403 -270 389 0
-403 270 0
-403 -389 0
404 -299 389 0
-404 299 0
-404 -389 0
405 647 -406 0
405 -647 -407 0
-405 -647 407 0
-405 647 406 0
406 -319 389 0
-406 319 0
-406 -389 0
407 -333 389 0
-407 333 0
-407 -389 0
408 646 -409 0
408 -646 -412 0
-408 -646 412 0
-408 646 409 0
409 647 -410 0
409 -647 -411 0
-409 -647 411 0
-409 647 410 0
410 -344 389 0
-410 344 0
-410 -389 0
411 -351 389 0
-411 351 0
-411 -389 0
412 647 -413 0
412 -647 -414 0
-412 -647 414 0
-412 647 413 0
413 -358 389 0
-413 358 0
-413 -389 0
414 -364 389 0
-414 364 0
-414 -389 0
415 645 -416 0
415 -645 646 -423 0
-415 -645 -646 0
-415 645 416 0
-415 -645 423 0
416 646 -417 0
416 -646 -420 0
-416 -646 420 0
-416 646 417 0
417 647 -418 0
417 -647 -419 0
-417 -647 419 0
-417 647 418 0
418 -372 389 0
-418 372 0
-418 -389 0
419 -375 389 0
-419 375 0
-419 -389 0
420 647 -421 0
420 -647 -422 0
-420 -647 422 0
-420 647 421 0
421 -379 389 0
-421 379 0
-421 -389 0
422 -382 389 0
-422 382 0
-422 -389 0
423 647 -424 0
-423 -647 0
-423 424 0
424 -387 389 0
-424 387 0
-424 -389 0
425 197 -426 454 0
425 197 -439 454 0
-425 -454 0
-425 -197 0
-425 426 439 0
426 -202 -205 -434 0
426 -202 205 -427 0
-426 202 0
-426 205 427 0
-426 -205 434 0
427 -428 431 0
-427 428 0
-427 -431 0
-428 208 -211 430 0
-428 208 211 429 0
428 -208 0
428 211 -429 0
428 -211 -430 0
429 -603 -214 0
429 -602 214 0
-429 603 -214 0
-429 602 214 0
430 -605 -214 0
430 -604 214 0
-430 605 -214 0
-430 604 214 0
431 -208 211 432 0
431 -208 -211 433 0
-431 208 0
-431 211 -432 0
-431 -211 -433 0
432 -607 -214 0
432 -606 214 0
-432 607 -214 0
-432 606 214 0
433 -609 -214 0
433 -608 214 0
-433 609 -214 0
-433 608 214 0
434 208 -435 0
434 -208 211 -438 0
-434 208 435 0
-434 -208 -211 0
-434 -208 438 0
435 211 -436 0
435 -211 -437 0
-435 -211 437 0
-435 211 436 0
436 -611 -214 0
436 -610 214 0
-436 611 -214 0
-436 610 214 0
437 -613 -214 0
437 -612 214 0
-437 613 -214 0
-437 612 214 0
438 -615 -647 0
438 -614 647 0
438 647 -215 0
-438 615 -647 0
-438 614 647 215 0
439 202 -205 -447 0
439 202 205 -440 0
-439 -202 0
-439 205 440 0
-439 -205 447 0
440 208 -441 0
440 -208 -444 0
-440 -208 444 0
-440 208 441 0
441 211 -442 0
441 -211 -443 0
-441 -211 443 0
-441 211 442 0
442 -587 -214 0
442 -586 214 0
-442 587 -214 0
-442 586 214 0
443 -589 -214 0
443 -588 214 0
-443 589 -214 0
-443 588 214 0
444 211 -445 0
444 -211 -446 0
-444 -211 446 0
-444 211 445 0
445 -591 -214 0
445 -590 214 0
-445 591 -214 0
-445 590 214 0
446 -593 -214 0
446 -592 214 0
-446 593 -214 0
-446 592 214 0
447 -448 451 0
-447 448 0
-447 -451 0
-448 208 -211 450 0
-448 208 211 449 0
448 -208 0
448 211 -449 0
448 -211 -450 0
449 -595 -214 0
449 -594 214 0
-449 595 -214 0
-449 594 214 0
450 -597 -214 0
450 -596 214 0
-450 597 -214 0
-450 596 214 0
451 -208 211 452 0
451 -208 -211 453 0
-451 208 0
-451 211 -452 0
-451 -211 -453 0
452 -599 -214 0
452 -598 214 0
-452 599 -214 0
-452 598 214 0
453 -601 -214 0
453 -600 214 0
-453 601 -214 0
-453 600 214 0
-454 112 3 130 455 0
454 -455 0
454 -112 0
454 -130 0
454 -3 0
-455 122 147 159 173 0
455 -173 0
455 -122 0
455 -159 0
455 -147 0
456 -643 396 -476 0
456 643 396 -457 0
-456 -396 0
-456 -643 476 0
-456 643 457 0
457 -644 -469 0
457 644 -458 466 0
-457 644 458 0
-457 -644 469 0
-457 644 -466 0
-458 645 -646 465 0
-458 645 646 459 0
458 -645 0
458 -646 -465 0
458 646 -459 0
459 -647 -243 0
459 647 -460 0
-459 647 460 0
-459 -647 243 0
460 203 244 -461 0
460 -203 244 -395 0
-460 -244 0
-460 203 461 0
-460 -203 395 0
-461 -206 362 0
-461 206 462 0
461 -206 -362 0
461 206 -462 0
-462 -209 329 0
-462 209 463 0
462 -209 -329 0
462 209 -463 0
-463 212 464 0
-463 -212 290 0
463 -212 -290 0
463 212 -464 0
464 -587 -215 0
464 -586 215 0
-464 586 215 0
-464 587 -215 0
465 647 -283 0
465 -647 -311 0
-465 -647 311 0
-465 647 283 0
466 -645 -646 468 0
466 -645 646 467 0
-466 645 0
-466 -646 -468 0
-466 646 -467 0
467 647 -325 0
467 -647 -340 0
-467 -647 340 0
-467 647 325 0
468 647 -347 0
468 -647 -354 0
-468 -647 354 0
-468 647 347 0
469 645 -470 0
469 -645 -473 0
-469 -645 473 0
-469 645 470 0
470 646 -471 0
470 -646 -472 0
-470 -646 472 0
-470 646 471 0
471 647 -360 0
471 -647 -370 0
-471 -647 370 0
-471 647 360 0
472 647 -373 0
472 -647 -377 0
-472 -647 377 0
-472 647 373 0
473 646 -474 0
473 -646 -475 0
-473 -646 475 0
-473 646 474 0
474 647 -380 0
474 -647 -385 0
-474 -647 385 0
-474 647 380 0
475 647 -388 0
475 -647 -392 0
-475 -647 392 0
-475 647 388 0
476 644 -477 0
476 -644 -484 0
-476 -644 484 0
-476 644 477 0
477 645 -478 0
477 -645 -481 0
-477 -645 481 0
-477 645 478 0
478 646 -479 0
478 -646 -480 0
-478 -646 480 0
-478 646 479 0
479 647 -394 0
479 -647 -403 0
-479 -647 403 0
-479 647 394 0
480 647 -404 0
480 -647 -406 0
-480 -647 406 0
-480 647 404 0
481 646 -482 0
481 -646 -483 0
-481 -646 483 0
-481 646 482 0
482 647 -407 0
482 -647 -410 0
-482 -647 410 0
-482 647 407 0
483 647 -411 0
483 -647 -413 0
-483 -647 413 0
-483 647 411 0
484 645 -485 0
484 -645 646 -488 0
-484 -645 -646 0
-484 645 485 0
-484 -645 488 0
485 646 -486 0
485 -646 -487 0
-485 -646 487 0
-485 646 486 0
486 647 -414 0
486 -647 -418 0
-486 -647 418 0
-486 647 414 0
487 647 -419 0
487 -647 -421 0
-487 -647 421 0
-487 647 419 0
488 647 -422 0
488 -647 -424 0
-488 -647 424 0
-488 647 422 0
-489 490 541 0
-489 454 490 -525 0
489 -490 0
489 -454 -541 0
489 525 -541 0
490 -454 -506 0
490 -197 -506 0
490 491 -506 0
-490 506 0
-490 197 454 -491 0
-491 202 499 0
-491 -202 492 0
491 -202 -492 0
491 202 -499 0
492 205 -493 0
492 -205 -496 0
-492 -205 496 0
-492 205 493 0
493 208 -494 0
493 -208 -495 0
-493 -208 495 0
-493 208 494 0
494 -211 -213 0
494 211 -238 0
-494 211 238 0
-494 -211 213 0
495 211 -216 0
495 -211 -218 0
-495 -211 218 0
-495 211 216 0
496 208 -497 0
496 -208 -498 0
-496 -208 498 0
-496 208 497 0
497 211 -219 0
497 -211 -222 0
-497 -211 222 0
-497 211 219 0
498 211 -223 0
498 -615 -211 214 0
-498 -211 -214 0
-498 211 223 0
-498 615 -211 0
499 -205 -503 0
499 205 -500 502 0
-499 205 500 0
-499 -205 503 0
-499 205 -502 0
-500 208 211 501 0
-500 208 -211 227 0
500 -208 0
500 211 -501 0
500 -211 -227 0
501 -586 -214 0
501 -585 214 0
-501 586 -214 0
-501 585 214 0
502 -208 211 228 0
502 -208 -211 230 0
-502 208 0
-502 211 -228 0
-502 -211 -230 0
503 208 -504 0
503 -208 -505 0
-503 -208 505 0
-503 208 504 0
504 211 -231 0
504 -211 -234 0
-504 -211 234 0
-504 211 231 0
505 211 -235 0
505 -211 -237 0
-505 -211 237 0
-505 211 235 0
506 -643 396 -519 0
506 643 396 -507 0
-506 -396 0
-506 -643 519 0
-506 643 507 0
507 -644 -516 0
507 644 -508 515 0
-507 644 508 0
-507 -644 516 0
-507 644 -515 0
-508 645 -646 242 0
-508 645 646 509 0
508 -645 0
508 -646 -242 0
508 646 -509 0
509 -647 -460 0
509 647 -510 0
-509 647 510 0
-509 -647 460 0
510 203 244 -511 0
510 -203 244 -393 0
-510 -244 0
-510 203 511 0
-510 -203 393 0
-511 -206 356 0
-511 206 512 0
511 -206 -356 0
511 206 -512 0
-512 -209 315 0
-512 209 513 0
512 -209 -315 0
512 209 -513 0
-513 212 514 0
-513 -212 259 0
513 -212 -259 0
513 212 -514 0
514 -586 -215 0
514 -585 215 0
-514 585 215 0
-514 586 -215 0
515 -645 -646 339 0
515 -645 646 310 0
-515 645 0
-515 -646 -339 0
-515 646 -310 0
516 645 -517 0
516 -645 -518 0
-516 -645 518 0
-516 645 517 0
517 646 -353 0
517 -646 -369 0
-517 -646 369 0
-517 646 353 0
518 646 -376 0
518 -646 -384 0
-518 -646 384 0
-518 646 376 0
519 644 -520 0
519 -644 -523 524 0
-519 -644 523 0
-519 644 520 0
-519 -644 -524 0
520 645 -521 0
520 -645 -522 0
-520 -645 522 0
-520 645 521 0
521 646 -391 0
521 -646 -402 0
-521 -646 402 0
-521 646 391 0
522 646 -405 0
522 -646 -409 0
-522 -646 409 0
-522 646 405 0
-523 645 -646 417 0
-523 645 646 412 0
523 -645 0
523 -646 -417 0
523 646 -412 0
524 -645 -646 423 0
524 -645 646 420 0
-524 645 0
-524 -646 -423 0
-524 646 -420 0
525 197 202 -534 0
525 197 -202 -526 0
-525 -197 0
-525 202 534 0
-525 -202 526 0
526 205 -527 0
526 -205 -530 0
-526 -205 530 0
-526 205 527 0
527 208 -528 0
527 -208 -529 0
-527 -208 529 0
-527 208 528 0
528 -211 -429 0
528 211 -453 0
-528 211 453 0
-528 -211 429 0
529 211 -430 0
529 -211 -432 0
-529 -211 432 0
-529 211 430 0
530 208 -532 0
530 531 -208 -533 0
-530 208 532 0
-530 -531 -208 0
-530 -208 533 0
531 615 -646 -647 0
531 614 -646 647 0
-531 646 0
-531 -614 647 0
-531 -615 -647 0
532 211 -433 0
532 -211 -436 0
-532 -211 436 0
-532 211 433 0
-533 612 211 214 0
-533 613 211 -214 0
533 -211 0
533 -613 -214 0
533 -612 214 0
534 -205 -538 0
534 205 -535 537 0
-534 205 535 0
-534 -205 538 0
-534 205 -537 0
-535 208 211 536 0
-535 208 -211 442 0
535 -208 0
535 211 -536 0
535 -211 -442 0
536 -585 -214 0
536 -584 214 0
-536 585 -214 0
-536 584 214 0
537 -208 211 443 0
537 -208 -211 445 0
-537 208 0
-537 211 -443 0
-537 -211 -445 0
538 -539 540 0
-538 539 0
-538 -540 0
-539 208 -211 449 0
-539 208 211 446 0
539 -208 0
539 211 -446 0
539 -211 -449 0
540 -208 211 450 0
540 -208 -211 452 0
-540 208 0
-540 211 -450 0
-540 -211 -452 0
541 -643 396 -554 0
541 643 396 -542 0
-541 -396 0
-541 -643 554 0
-541 643 542 0
542 -644 -551 0
542 644 -543 550 0
-542 644 543 0
-542 -644 551 0
-542 644 -550 0
-543 645 -646 459 0
-543 645 646 544 0
543 -645 0
543 -646 -459 0
543 646 -544 0
544 -647 -510 0
544 647 244 -545 0
-544 -647 510 0
-544 647 545 0
-544 647 -244 0
-545 -203 390 0
-545 203 546 0
545 -203 -390 0
545 203 -546 0
-546 -206 349 0
-546 206 547 0
546 -206 -349 0
546 206 -547 0
-547 209 548 0
-547 -209 289 0
547 -209 -289 0
547 209 -548 0
548 -212 -464 0
548 212 -549 0
-548 212 549 0
-548 -212 464 0
549 -585 -215 0
549 -584 215 0
-549 584 215 0
-549 585 -215 0
550 -645 -646 467 0
550 -645 646 465 0
-550 645 0
-550 -646 -467 0
-550 646 -465 0
551 645 -552 0
551 -645 -553 0
-551 -645 553 0
-551 645 552 0
552 646 -468 0
552 -646 -471 0
-552 -646 471 0
-552 646 468 0
553 646 -472 0
553 -646 -474 0
-553 -646 474 0
-553 646 472 0
554 644 -555 0
554 -644 -558 559 0
-554 -644 558 0
-554 644 555 0
-554 -644 -559 0
555 645 -556 0
555 -645 -557 0
-555 -645 557 0
-555 645 556 0
556 646 -475 0
556 -646 -479 0
-556 -646 479 0
-556 646 475 0
557 646 -480 0
557 -646 -482 0
-557 -646 482 0
-557 646 480 0
-558 645 -646 486 0
-558 645 646 483 0
558 -645 0
558 -646 -486 0
558 646 -483 0
559 -645 -646 488 0
559 -645 646 487 0
-559 645 0
-559 -646 -488 0
-559 646 -487 0
-560 561 568 0
-560 172 561 -567 0
560 -561 0
560 -172 -568 0
560 567 -568 0
561 -172 -563 0
561 643 562 -563 0
-561 563 0
-561 172 -562 0
-561 -643 172 0
562 644 -469 0
562 -644 -477 0
-562 -644 477 0
-562 644 469 0
563 112 121 173 -564 0
-563 564 0
-563 -112 0
-563 -173 0
-563 -121 0
564 197 -202 -565 0
564 197 202 -566 0
-564 -197 0
-564 202 566 0
-564 -202 565 0
565 205 -434 0
-565 -205 0
-565 434 0
-566 205 447 0
-566 -205 427 0
566 -205 -427 0
566 205 -447 0
-567 643 -644 555 0
-567 643 644 551 0
567 -643 0
567 -644 -555 0
567 644 -551 0
568 112 121 173 -569 0
-568 569 0
-568 -112 0
-568 -173 0
-568 -121 0
569 197 -202 -570 0
569 197 202 -571 0
-569 -197 0
-569 202 571 0
-569 -202 570 0
570 205 -530 0
-570 -205 0
-570 530 0
-571 205 538 0
-571 -205 527 0
571 -205 -527 0
571 205 -538 0
-572 573 580 0
-572 172 573 -579 0
572 -573 0
572 -172 -580 0
572 579 -580 0
573 -172 -575 0
573 643 574 -575 0
-573 575 0
-573 172 -574 0
-573 -643 172 0
574 644 -367 0
574 -644 -400 0
-574 -644 400 0
-574 644 367 0
575 112 121 173 -576 0
-575 576 0
-575 -112 0
-575 -173 0
-575 -121 0
576 197 -202 -577 0
576 197 202 -578 0
-576 -197 0
-576 202 578 0
-576 -202 577 0
577 205 -220 0
-577 -205 0
-577 220 0
-578 205 232 0
-578 -205 207 0
578 -205 -207 0
578 205 -232 0
-579 643 -644 520 0
-579 643 644 516 0
579 -643 0
579 -644 -520 0
579 644 -516 0
580 112 121 173 -581 0
-580 581 0
-580 -112 0
-580 -173 0
-580 -121 0
581 197 -202 -582 0
581 197 202 -583 0
-581 -197 0
-581 202 583 0
-581 -202 582 0
582 205 -496 0
-582 -205 0
-582 496 0
-583 205 503 0
-583 -205 493 0
583 -205 -493 0
583 205 -503 0
-648 0
2 0

